90 15247909
31 61 1 20 85 69 48 54 49 78 14 68 64 32 4 53 89 38 15 73 47 71 83 37 62 24 79 60 35 75 27 19 59 45 36 72 39 58 25 74 23 21 13 18 9 16 6 44 65 70 33 66 52 10 90 2 28 55 17 34 84 43 87 57 67 76 40 77 42 12 22 3 7 81 30 50 5 63 51 80 8 11 46 56 41 82 86 26 29 88 
